language ESSENCE' 1.0
$ Problem from Gecode/examples/minesweeper.cc  problem 0
letting r be 6
letting c be 6
letting game be [
   [-1,-1,2,-1,3,-1],
   [2,-1,-1,-1,-1,-1],
   [-1,-1,2,4,-1,3],
   [1,-1,3,4,-1,-1],
   [-1,-1,-1,-1,-1,3],
   [-1,3,-1,3,-1,-1]
   ]


